Copyright (C) 2013-2015, Filipe Brandao
Build (method = -2)
  #dp: 3226
  Step-3' Graph: 75 vertices and 1080 arcs (0.00s)
  Step-4' Graph: 70 vertices and 1070 arcs (0.00s)
  #V4/#V3 = 0.93
  #A4/#A3 = 0.99
Ready! (0.00s)
Optimize a model with 143 rows, 1071 columns and 3079 nonzeros
Found heuristic solution: objective 524
Presolve removed 43 rows and 58 columns
Presolve time: 0.01s
Presolved: 100 rows, 1013 columns, 2915 nonzeros
Variable types: 0 continuous, 1013 integer (0 binary)
Optimize a model with 100 rows, 1013 columns and 2915 nonzeros
Presolved: 100 rows, 1013 columns, 2915 nonzeros

Root barrier log...

Ordering time: 0.00s

Barrier statistics:
 AA' NZ     : 1.462e+03
 Factor NZ  : 2.808e+03
 Factor Ops : 1.038e+05 (less than 1 second per iteration)
 Threads    : 1

                  Objective                Residual
Iter       Primal          Dual         Primal    Dual     Compl     Time
   0   8.16288618e+03 -3.08860012e+04  9.03e+04 2.22e-16  1.44e+02     0s
   1   2.60311547e+03 -1.12419392e+04  1.46e+04 8.88e-16  2.55e+01     0s
   2   8.67543301e+02 -4.19967722e+03  8.14e+02 9.33e-15  3.28e+00     0s
   3   6.84624991e+02 -1.28813806e+03  8.57e+01 3.77e-15  1.01e+00     0s
   4   5.81355001e+02 -3.23478009e+02  2.40e+01 2.22e-15  4.49e-01     0s
   5   4.86301498e+02  1.90607081e+01  8.99e+00 1.11e-15  2.30e-01     0s
   6   4.50832089e+02  1.44338242e+02  4.66e+00 1.47e-15  1.50e-01     0s
   7   4.12689749e+02  2.80710703e+02  1.95e+00 1.33e-15  6.45e-02     0s
   8   3.82513693e+02  3.66500163e+02  4.22e-01 1.11e-15  7.86e-03     0s
   9   3.79950691e+02  3.71873619e+02  1.71e-01 1.45e-15  3.95e-03     0s
  10   3.76993410e+02  3.74031665e+02  3.92e-02 1.54e-15  1.44e-03     0s
  11   3.75732584e+02  3.75378549e+02  1.48e-03 1.19e-15  1.72e-04     0s
  12   3.75667825e+02  3.75665544e+02  1.29e-06 1.17e-15  1.11e-06     0s
  13   3.75666667e+02  3.75666667e+02  4.39e-11 1.34e-15  8.73e-12     0s

Barrier solved model in 13 iterations and 0.01 seconds
Optimal objective 3.75666667e+02


Root relaxation: objective 3.756667e+02, 296 iterations, 0.01 seconds

    Nodes    |    Current Node    |     Objective Bounds      |     Work
 Expl Unexpl |  Obj  Depth IntInf | Incumbent    BestBd   Gap | It/Node Time

     0     0  375.66667    0    9  524.00000  375.66667  28.3%     -    0s
H    0     0                     376.0000000  375.66667  0.09%     -    0s

Explored 0 nodes (442 simplex iterations) in 0.02 seconds
Thread count was 1 (of 4 available processors)

Optimal solution found (tolerance 0.00e+00)
Best objective 3.760000000000e+02, best bound 3.760000000000e+02, gap 0.0%
Preprocessing time: 0.00 seconds
Gurobi run time: 0.02 seconds
Total run time: 0.02 seconds
Objective: 376
Solution:
5 x [i=1]
3 x [i=1, i=73]
1 x [i=2]
9 x [i=2, i=72]
4 x [i=3, i=71]
8 x [i=4, i=71]
13 x [i=5, i=70]
1 x [i=6]
10 x [i=6, i=68]
12 x [i=7, i=69]
1 x [i=7, i=70]
13 x [i=8, i=66]
1 x [i=8, i=70]
10 x [i=9, i=65]
2 x [i=9, i=67]
10 x [i=10, i=64]
8 x [i=11, i=63]
1 x [i=11, i=64]
8 x [i=12, i=62]
2 x [i=12, i=64]
5 x [i=12, i=67]
4 x [i=13, i=61]
7 x [i=14, i=60]
10 x [i=15, i=59]
5 x [i=15, i=61]
10 x [i=16, i=58]
4 x [i=17, i=57]
2 x [i=17, i=60]
10 x [i=18, i=56]
2 x [i=18, i=61]
2 x [i=19, i=55]
7 x [i=19, i=57]
6 x [i=20, i=54]
4 x [i=20, i=55]
9 x [i=21, i=53]
14 x [i=22, i=52]
2 x [i=22, i=53]
11 x [i=23, i=51]
1 x [i=23, i=53]
9 x [i=24, i=50]
9 x [i=25, i=49]
7 x [i=26, i=48]
10 x [i=27, i=47]
1 x [i=27, i=48]
2 x [i=27, i=53]
6 x [i=28, i=46]
2 x [i=28, i=47]
1 x [i=28, i=50]
5 x [i=29, i=45]
4 x [i=30, i=44]
1 x [i=30, i=45]
2 x [i=30, i=50]
1 x [i=30, i=58]
10 x [i=31, i=44]
9 x [i=32, i=42]
4 x [i=32, i=44]
8 x [i=33, i=43]
7 x [i=34, i=40]
6 x [i=34, i=41]
11 x [i=35, i=39]
1 x [i=35, i=60]
9 x [i=36, i=38]
7 x [i=37, i=38]
1 x [i=37, i=41]
1 x [i=38, i=45]
5 x [i=50, i=60, i=61]
